Maximize
  - 2.837547592005 edge_0_1_0_0 - 3.1049608892148 edge_0_2_0_0
   - 0.4841285976576 edge_0_5_0_0 - 3.8891255234096 edge_0_8_0_0
   - 2.6317455059062 edge_0_9_0_0 - 3.20505224401 edge_0_11_0_0
   - 5.0023081444538 edge_0_13_0_0 - 0.60159263431995 edge_0_14_0_0
   - 3.9231574102392 edge_0_15_0_0 - 1.9796697045476 edge_0_16_0_0
   - 0.9684309048531 edge_0_17_0_0 - 0.1048323362898444 edge_1_2_0_0
   - 0.6123194166369164 edge_1_3_0_0 - 0.3962544708731175 edge_1_4_0_0
   + 0.1964500951816162 edge_1_5_0_0 + 0.1772228343781173 edge_1_7_0_0
   - 0.8999563006174562 edge_1_8_0_0 - 0.0757643206731918 edge_1_9_0_0
   - 1.012329394195632 edge_1_10_0_0 - 0.9782426013152575 edge_1_11_0_0
   + 1.306119810036588 edge_1_13_0_0 + 0.4365262900180297 edge_1_14_0_0
   - 0.0580254565491479 edge_1_15_0_0 + 0.237304009750098 edge_1_16_0_0
   + 0.2221923473357185 edge_1_17_0_0 + 0.7259961362958511 edge_1_18_0_0
   + 0.5336763862058749 edge_2_1_0_0 + 0.9685110794411963 edge_2_3_0_0
   + 2.523872848869876 edge_2_4_0_0 + 2.673240462554572 edge_2_5_0_0
   + 1.506550480260797 edge_2_7_0_0 + 0.0446877635842449 edge_2_8_0_0
   + 0.7664654192016037 edge_2_9_0_0 - 0.1564110397204025 edge_2_10_0_0
   + 1.540156873476126 edge_2_11_0_0 + 0.4032870179328853 edge_2_13_0_0
   - 0.5031343060055107 edge_2_14_0_0 + 1.253724712077634 edge_2_15_0_0
   + 1.386869715007408 edge_2_16_0_0 + 0.3077154676513509 edge_2_17_0_0
   + 1.541101006366838 edge_2_18_0_0 - 1.007000989622568 edge_3_1_0_0
   - 0.3009591876790602 edge_3_2_0_0 + 0.4798699700447525 edge_3_4_0_0
   + 1.520954061790698 edge_3_5_0_0 + 0.5795918375842977 edge_3_7_0_0
   - 1.211873654593084 edge_3_8_0_0 - 0.9163628152076606 edge_3_10_0_0
   + 0.0783111641532248 edge_3_11_0_0 - 0.5207995218536565 edge_3_16_0_0
   + 0.1331862293915506 edge_3_18_0_0 - 0.0796034546677434 edge_4_1_0_0
   - 0.0203007864757594 edge_4_2_0_0 + 1.364439289490793 edge_4_3_0_0
   - 0.0209214950020568 edge_4_5_0_0 - 0.0821464355149449 edge_4_7_0_0
   - 0.2927304659102484 edge_4_8_0_0 - 0.285032457047335 edge_4_9_0_0
   - 0.3971206371284265 edge_4_11_0_0 - 0.1014425290476862 edge_4_14_0_0
   + 0.0185656131082988 edge_4_16_0_0 + 0.0202957326898516 edge_4_17_0_0
   + 0.1035784075396181 edge_4_18_0_0 + 0.6483681468157857 edge_5_1_0_0
   + 0.9197342935356566 edge_5_2_0_0 + 3.463025110064486 edge_5_3_0_0
   + 3.323655348145255 edge_5_4_0_0 + 1.225096992234999 edge_5_7_0_0
   + 0.294390442002758 edge_5_8_0_0 + 0.5432168753479754 edge_5_9_0_0
   - 0.0694003148049567 edge_5_10_0_0 + 1.638393729083645 edge_5_11_0_0
   + 0.0511604832023519 edge_5_13_0_0 + 0.0690411478376712 edge_5_14_0_0
   + 0.3801581636165487 edge_5_15_0_0 + 0.7488482665824649 edge_5_16_0_0
   + 0.2504955857514816 edge_5_17_0_0 + 1.438436300152047 edge_5_18_0_0
   - 1.566589571174187 edge_7_1_0_0 - 1.363984874132912 edge_7_2_0_0
   - 0.7314884255638038 edge_7_5_0_0 - 0.1259365557203565 edge_7_8_0_0
   + 0.00381991613671131 edge_7_9_0_0 - 0.887311861573897 edge_8_1_0_0
   - 1.19629350808311 edge_8_2_0_0 - 0.3790006941648643 edge_8_3_0_0
   - 0.3775845635338283 edge_8_5_0_0 + 0.1549588408480254 edge_8_7_0_0
   + 0.4658709315057901 edge_8_9_0_0 - 0.5091261647048018 edge_8_10_0_0
   - 0.3265735330954532 edge_8_11_0_0 + 0.4543655376368635 edge_8_18_0_0
   - 0.50779658691573 edge_9_1_0_0 + 0.7565270236988161 edge_9_2_0_0
   - 0.0237340942564978 edge_9_4_0_0 + 0.00115928127944324 edge_9_5_0_0
   + 1.133024983363814 edge_9_7_0_0 + 1.538784212803515 edge_9_8_0_0
   + 0.2618140863308444 edge_9_10_0_0 + 1.961444334066256 edge_9_11_0_0
   + 0.0401929396089361 edge_9_14_0_0 + 1.72261309995725 edge_9_18_0_0
   + 0.1051485317074878 edge_10_8_0_0 + 0.5515701447014391 edge_10_9_0_0
   + 0.2947163490920187 edge_10_18_0_0 - 0.1369623816807055 edge_11_1_0_0
   - 0.3493850494208555 edge_11_2_0_0 + 1.091418839113577 edge_11_3_0_0
   + 0.1907018408259426 edge_11_4_0_0 - 0.3589912054318182 edge_11_5_0_0
   + 0.4486763779715061 edge_11_7_0_0 + 0.8607137111842722 edge_11_8_0_0
   + 1.031272398807066 edge_11_9_0_0 + 3.139901722615972 edge_11_10_0_0
   - 0.522017708951767 edge_11_13_0_0 - 0.3119636846964314 edge_11_14_0_0
   - 0.3161471281900329 edge_11_15_0_0 + 0.4174820313481146 edge_11_16_0_0
   - 1.145989518684225 edge_11_17_0_0 + 1.170717853008075 edge_11_18_0_0
   - 0.5681153455316248 edge_13_1_0_0 - 0.4363251464032804 edge_13_15_0_0
   - 0.3662164641602655 edge_13_16_0_0 - 0.7180221456083986 edge_13_17_0_0
   + 1.486971938275006 edge_14_1_0_0 + 1.743832969675833 edge_14_2_0_0
   - 0.3274666507062755 edge_14_3_0_0 - 0.071642599837014 edge_14_4_0_0
   + 0.1118027007111055 edge_14_5_0_0 + 0.2830621005491618 edge_14_7_0_0
   - 0.7425138690398033 edge_14_8_0_0 - 0.6516348401990714 edge_14_9_0_0
   - 0.511974185926979 edge_14_10_0_0 - 0.7489092633970463 edge_14_11_0_0
   + 2.145936804303953 edge_14_16_0_0 + 2.927772326424995 edge_14_17_0_0
   + 2.840793483514419 edge_14_18_0_0 - 0.3626166082499944 edge_15_1_0_0
   - 0.9498474237420333 edge_15_2_0_0 - 1.52825082322244 edge_15_5_0_0
   - 0.8077381535818281 edge_15_7_0_0 - 1.784065212213492 edge_15_11_0_0
   + 0.1183179109220565 edge_15_13_0_0 - 0.0472042447738997 edge_15_16_0_0
   - 0.2128671156981923 edge_15_17_0_0 - 0.9407662424950773 edge_15_18_0_0
   + 0.7017471618603304 edge_16_1_0_0 + 0.1246443855175486 edge_16_2_0_0
   - 0.2434978886083047 edge_16_4_0_0 - 0.4777703243062076 edge_16_5_0_0
   + 0.2546266070050093 edge_16_7_0_0 - 0.9811129249833499 edge_16_11_0_0
   - 0.2348649788707458 edge_16_13_0_0 + 0.5666784774965534 edge_16_14_0_0
   - 0.0606021313721026 edge_16_15_0_0 + 0.8243747726550706 edge_16_17_0_0
   - 0.8096638435082171 edge_16_18_0_0 + 1.443920853311144 edge_17_1_0_0
   + 3.367069765120304 edge_17_2_0_0 + 0.4911901234878308 edge_17_3_0_0
   - 0.0660893962180164 edge_17_4_0_0 + 2.007543071912209 edge_17_5_0_0
   + 2.214206111880525 edge_17_7_0_0 - 1.009055960863279 edge_17_8_0_0
   - 1.194122143983894 edge_17_9_0_0 - 0.6552134544011309 edge_17_10_0_0
   + 1.523059360314833 edge_17_11_0_0 + 1.603078268277498 edge_17_13_0_0
   + 0.0950750053735327 edge_17_14_0_0 + 2.818578651275471 edge_17_15_0_0
   + 3.342387986849509 edge_17_16_0_0 + 2.942089470423821 edge_17_18_0_0
   - 0.9600444374578392 edge_18_11_0_0
Subject To
 one_parent_1: edge_0_1_0_0 + edge_2_1_0_0 + edge_3_1_0_0 + edge_4_1_0_0
   + edge_5_1_0_0 + edge_7_1_0_0 + edge_8_1_0_0 + edge_9_1_0_0
   + edge_11_1_0_0 + edge_13_1_0_0 + edge_14_1_0_0 + edge_15_1_0_0
   + edge_16_1_0_0 + edge_17_1_0_0 = 1
 consume_one_flow_unit_1: flow_0_1_0_0 - flow_1_2_0_0 - flow_1_3_0_0
   - flow_1_4_0_0 - flow_1_5_0_0 - flow_1_7_0_0 - flow_1_8_0_0
   - flow_1_9_0_0 - flow_1_10_0_0 - flow_1_11_0_0 - flow_1_13_0_0
   - flow_1_14_0_0 - flow_1_15_0_0 - flow_1_16_0_0 - flow_1_17_0_0
   - flow_1_18_0_0 + flow_2_1_0_0 + flow_3_1_0_0 + flow_4_1_0_0
   + flow_5_1_0_0 + flow_7_1_0_0 + flow_8_1_0_0 + flow_9_1_0_0
   + flow_11_1_0_0 + flow_13_1_0_0 + flow_14_1_0_0 + flow_15_1_0_0
   + flow_16_1_0_0 + flow_17_1_0_0 = 1
 one_parent_2: edge_0_2_0_0 + edge_1_2_0_0 + edge_3_2_0_0 + edge_4_2_0_0
   + edge_5_2_0_0 + edge_7_2_0_0 + edge_8_2_0_0 + edge_9_2_0_0
   + edge_11_2_0_0 + edge_14_2_0_0 + edge_15_2_0_0 + edge_16_2_0_0
   + edge_17_2_0_0 = 1
 consume_one_flow_unit_2: flow_0_2_0_0 + flow_1_2_0_0 - flow_2_1_0_0
   - flow_2_3_0_0 - flow_2_4_0_0 - flow_2_5_0_0 - flow_2_7_0_0
   - flow_2_8_0_0 - flow_2_9_0_0 - flow_2_10_0_0 - flow_2_11_0_0
   - flow_2_13_0_0 - flow_2_14_0_0 - flow_2_15_0_0 - flow_2_16_0_0
   - flow_2_17_0_0 - flow_2_18_0_0 + flow_3_2_0_0 + flow_4_2_0_0
   + flow_5_2_0_0 + flow_7_2_0_0 + flow_8_2_0_0 + flow_9_2_0_0
   + flow_11_2_0_0 + flow_14_2_0_0 + flow_15_2_0_0 + flow_16_2_0_0
   + flow_17_2_0_0 = 1
 one_parent_3: edge_1_3_0_0 + edge_2_3_0_0 + edge_4_3_0_0 + edge_5_3_0_0
   + edge_8_3_0_0 + edge_11_3_0_0 + edge_14_3_0_0 + edge_17_3_0_0 = 1
 consume_one_flow_unit_3: flow_1_3_0_0 + flow_2_3_0_0 - flow_3_1_0_0
   - flow_3_2_0_0 - flow_3_4_0_0 - flow_3_5_0_0 - flow_3_7_0_0
   - flow_3_8_0_0 - flow_3_10_0_0 - flow_3_11_0_0 - flow_3_16_0_0
   - flow_3_18_0_0 + flow_4_3_0_0 + flow_5_3_0_0 + flow_8_3_0_0
   + flow_11_3_0_0 + flow_14_3_0_0 + flow_17_3_0_0 = 1
 one_parent_4: edge_1_4_0_0 + edge_2_4_0_0 + edge_3_4_0_0 + edge_5_4_0_0
   + edge_9_4_0_0 + edge_11_4_0_0 + edge_14_4_0_0 + edge_16_4_0_0
   + edge_17_4_0_0 = 1
 consume_one_flow_unit_4: flow_1_4_0_0 + flow_2_4_0_0 + flow_3_4_0_0
   - flow_4_1_0_0 - flow_4_2_0_0 - flow_4_3_0_0 - flow_4_5_0_0
   - flow_4_7_0_0 - flow_4_8_0_0 - flow_4_9_0_0 - flow_4_11_0_0
   - flow_4_14_0_0 - flow_4_16_0_0 - flow_4_17_0_0 - flow_4_18_0_0
   + flow_5_4_0_0 + flow_9_4_0_0 + flow_11_4_0_0 + flow_14_4_0_0
   + flow_16_4_0_0 + flow_17_4_0_0 = 1
 one_parent_5: edge_0_5_0_0 + edge_1_5_0_0 + edge_2_5_0_0 + edge_3_5_0_0
   + edge_4_5_0_0 + edge_7_5_0_0 + edge_8_5_0_0 + edge_9_5_0_0
   + edge_11_5_0_0 + edge_14_5_0_0 + edge_15_5_0_0 + edge_16_5_0_0
   + edge_17_5_0_0 = 1
 consume_one_flow_unit_5: flow_0_5_0_0 + flow_1_5_0_0 + flow_2_5_0_0
   + flow_3_5_0_0 + flow_4_5_0_0 - flow_5_1_0_0 - flow_5_2_0_0
   - flow_5_3_0_0 - flow_5_4_0_0 - flow_5_7_0_0 - flow_5_8_0_0
   - flow_5_9_0_0 - flow_5_10_0_0 - flow_5_11_0_0 - flow_5_13_0_0
   - flow_5_14_0_0 - flow_5_15_0_0 - flow_5_16_0_0 - flow_5_17_0_0
   - flow_5_18_0_0 + flow_7_5_0_0 + flow_8_5_0_0 + flow_9_5_0_0
   + flow_11_5_0_0 + flow_14_5_0_0 + flow_15_5_0_0 + flow_16_5_0_0
   + flow_17_5_0_0 = 1
 one_parent_6: = 1
 consume_one_flow_unit_6: = 1
 one_parent_7: edge_1_7_0_0 + edge_2_7_0_0 + edge_3_7_0_0 + edge_4_7_0_0
   + edge_5_7_0_0 + edge_8_7_0_0 + edge_9_7_0_0 + edge_11_7_0_0
   + edge_14_7_0_0 + edge_15_7_0_0 + edge_16_7_0_0 + edge_17_7_0_0 = 1
 consume_one_flow_unit_7: flow_1_7_0_0 + flow_2_7_0_0 + flow_3_7_0_0
   + flow_4_7_0_0 + flow_5_7_0_0 - flow_7_1_0_0 - flow_7_2_0_0
   - flow_7_5_0_0 - flow_7_8_0_0 - flow_7_9_0_0 + flow_8_7_0_0
   + flow_9_7_0_0 + flow_11_7_0_0 + flow_14_7_0_0 + flow_15_7_0_0
   + flow_16_7_0_0 + flow_17_7_0_0 = 1
 one_parent_8: edge_0_8_0_0 + edge_1_8_0_0 + edge_2_8_0_0 + edge_3_8_0_0
   + edge_4_8_0_0 + edge_5_8_0_0 + edge_7_8_0_0 + edge_9_8_0_0
   + edge_10_8_0_0 + edge_11_8_0_0 + edge_14_8_0_0 + edge_17_8_0_0 = 1
 consume_one_flow_unit_8: flow_0_8_0_0 + flow_1_8_0_0 + flow_2_8_0_0
   + flow_3_8_0_0 + flow_4_8_0_0 + flow_5_8_0_0 + flow_7_8_0_0
   - flow_8_1_0_0 - flow_8_2_0_0 - flow_8_3_0_0 - flow_8_5_0_0
   - flow_8_7_0_0 - flow_8_9_0_0 - flow_8_10_0_0 - flow_8_11_0_0
   - flow_8_18_0_0 + flow_9_8_0_0 + flow_10_8_0_0 + flow_11_8_0_0
   + flow_14_8_0_0 + flow_17_8_0_0 = 1
 one_parent_9: edge_0_9_0_0 + edge_1_9_0_0 + edge_2_9_0_0 + edge_4_9_0_0
   + edge_5_9_0_0 + edge_7_9_0_0 + edge_8_9_0_0 + edge_10_9_0_0
   + edge_11_9_0_0 + edge_14_9_0_0 + edge_17_9_0_0 = 1
 consume_one_flow_unit_9: flow_0_9_0_0 + flow_1_9_0_0 + flow_2_9_0_0
   + flow_4_9_0_0 + flow_5_9_0_0 + flow_7_9_0_0 + flow_8_9_0_0
   - flow_9_1_0_0 - flow_9_2_0_0 - flow_9_4_0_0 - flow_9_5_0_0
   - flow_9_7_0_0 - flow_9_8_0_0 - flow_9_10_0_0 - flow_9_11_0_0
   - flow_9_14_0_0 - flow_9_18_0_0 + flow_10_9_0_0 + flow_11_9_0_0
   + flow_14_9_0_0 + flow_17_9_0_0 = 1
 one_parent_10: edge_1_10_0_0 + edge_2_10_0_0 + edge_3_10_0_0
   + edge_5_10_0_0 + edge_8_10_0_0 + edge_9_10_0_0 + edge_11_10_0_0
   + edge_14_10_0_0 + edge_17_10_0_0 = 1
 consume_one_flow_unit_10: flow_1_10_0_0 + flow_2_10_0_0 + flow_3_10_0_0
   + flow_5_10_0_0 + flow_8_10_0_0 + flow_9_10_0_0 - flow_10_8_0_0
   - flow_10_9_0_0 - flow_10_18_0_0 + flow_11_10_0_0 + flow_14_10_0_0
   + flow_17_10_0_0 = 1
 one_parent_11: edge_0_11_0_0 + edge_1_11_0_0 + edge_2_11_0_0
   + edge_3_11_0_0 + edge_4_11_0_0 + edge_5_11_0_0 + edge_8_11_0_0
   + edge_9_11_0_0 + edge_14_11_0_0 + edge_15_11_0_0 + edge_16_11_0_0
   + edge_17_11_0_0 + edge_18_11_0_0 = 1
 consume_one_flow_unit_11: flow_0_11_0_0 + flow_1_11_0_0 + flow_2_11_0_0
   + flow_3_11_0_0 + flow_4_11_0_0 + flow_5_11_0_0 + flow_8_11_0_0
   + flow_9_11_0_0 - flow_11_1_0_0 - flow_11_2_0_0 - flow_11_3_0_0
   - flow_11_4_0_0 - flow_11_5_0_0 - flow_11_7_0_0 - flow_11_8_0_0
   - flow_11_9_0_0 - flow_11_10_0_0 - flow_11_13_0_0 - flow_11_14_0_0
   - flow_11_15_0_0 - flow_11_16_0_0 - flow_11_17_0_0 - flow_11_18_0_0
   + flow_14_11_0_0 + flow_15_11_0_0 + flow_16_11_0_0 + flow_17_11_0_0
   + flow_18_11_0_0 = 1
 one_parent_12: = 1
 consume_one_flow_unit_12: = 1
 one_parent_13: edge_0_13_0_0 + edge_1_13_0_0 + edge_2_13_0_0
   + edge_5_13_0_0 + edge_11_13_0_0 + edge_15_13_0_0 + edge_16_13_0_0
   + edge_17_13_0_0 = 1
 consume_one_flow_unit_13: flow_0_13_0_0 + flow_1_13_0_0 + flow_2_13_0_0
   + flow_5_13_0_0 + flow_11_13_0_0 - flow_13_1_0_0 - flow_13_15_0_0
   - flow_13_16_0_0 - flow_13_17_0_0 + flow_15_13_0_0 + flow_16_13_0_0
   + flow_17_13_0_0 = 1
 one_parent_14: edge_0_14_0_0 + edge_1_14_0_0 + edge_2_14_0_0
   + edge_4_14_0_0 + edge_5_14_0_0 + edge_9_14_0_0 + edge_11_14_0_0
   + edge_16_14_0_0 + edge_17_14_0_0 = 1
 consume_one_flow_unit_14: flow_0_14_0_0 + flow_1_14_0_0 + flow_2_14_0_0
   + flow_4_14_0_0 + flow_5_14_0_0 + flow_9_14_0_0 + flow_11_14_0_0
   - flow_14_1_0_0 - flow_14_2_0_0 - flow_14_3_0_0 - flow_14_4_0_0
   - flow_14_5_0_0 - flow_14_7_0_0 - flow_14_8_0_0 - flow_14_9_0_0
   - flow_14_10_0_0 - flow_14_11_0_0 - flow_14_16_0_0 - flow_14_17_0_0
   - flow_14_18_0_0 + flow_16_14_0_0 + flow_17_14_0_0 = 1
 one_parent_15: edge_0_15_0_0 + edge_1_15_0_0 + edge_2_15_0_0
   + edge_5_15_0_0 + edge_11_15_0_0 + edge_13_15_0_0 + edge_16_15_0_0
   + edge_17_15_0_0 = 1
 consume_one_flow_unit_15: flow_0_15_0_0 + flow_1_15_0_0 + flow_2_15_0_0
   + flow_5_15_0_0 + flow_11_15_0_0 + flow_13_15_0_0 - flow_15_1_0_0
   - flow_15_2_0_0 - flow_15_5_0_0 - flow_15_7_0_0 - flow_15_11_0_0
   - flow_15_13_0_0 - flow_15_16_0_0 - flow_15_17_0_0 - flow_15_18_0_0
   + flow_16_15_0_0 + flow_17_15_0_0 = 1
 one_parent_16: edge_0_16_0_0 + edge_1_16_0_0 + edge_2_16_0_0
   + edge_3_16_0_0 + edge_4_16_0_0 + edge_5_16_0_0 + edge_11_16_0_0
   + edge_13_16_0_0 + edge_14_16_0_0 + edge_15_16_0_0 + edge_17_16_0_0 = 1
 consume_one_flow_unit_16: flow_0_16_0_0 + flow_1_16_0_0 + flow_2_16_0_0
   + flow_3_16_0_0 + flow_4_16_0_0 + flow_5_16_0_0 + flow_11_16_0_0
   + flow_13_16_0_0 + flow_14_16_0_0 + flow_15_16_0_0 - flow_16_1_0_0
   - flow_16_2_0_0 - flow_16_4_0_0 - flow_16_5_0_0 - flow_16_7_0_0
   - flow_16_11_0_0 - flow_16_13_0_0 - flow_16_14_0_0 - flow_16_15_0_0
   - flow_16_17_0_0 - flow_16_18_0_0 + flow_17_16_0_0 = 1
 one_parent_17: edge_0_17_0_0 + edge_1_17_0_0 + edge_2_17_0_0
   + edge_4_17_0_0 + edge_5_17_0_0 + edge_11_17_0_0 + edge_13_17_0_0
   + edge_14_17_0_0 + edge_15_17_0_0 + edge_16_17_0_0 = 1
 consume_one_flow_unit_17: flow_0_17_0_0 + flow_1_17_0_0 + flow_2_17_0_0
   + flow_4_17_0_0 + flow_5_17_0_0 + flow_11_17_0_0 + flow_13_17_0_0
   + flow_14_17_0_0 + flow_15_17_0_0 + flow_16_17_0_0 - flow_17_1_0_0
   - flow_17_2_0_0 - flow_17_3_0_0 - flow_17_4_0_0 - flow_17_5_0_0
   - flow_17_7_0_0 - flow_17_8_0_0 - flow_17_9_0_0 - flow_17_10_0_0
   - flow_17_11_0_0 - flow_17_13_0_0 - flow_17_14_0_0 - flow_17_15_0_0
   - flow_17_16_0_0 - flow_17_18_0_0 = 1
 one_parent_18: edge_1_18_0_0 + edge_2_18_0_0 + edge_3_18_0_0
   + edge_4_18_0_0 + edge_5_18_0_0 + edge_8_18_0_0 + edge_9_18_0_0
   + edge_10_18_0_0 + edge_11_18_0_0 + edge_14_18_0_0 + edge_15_18_0_0
   + edge_16_18_0_0 + edge_17_18_0_0 = 1
 consume_one_flow_unit_18: flow_1_18_0_0 + flow_2_18_0_0 + flow_3_18_0_0
   + flow_4_18_0_0 + flow_5_18_0_0 + flow_8_18_0_0 + flow_9_18_0_0
   + flow_10_18_0_0 + flow_11_18_0_0 + flow_14_18_0_0 + flow_15_18_0_0
   + flow_16_18_0_0 + flow_17_18_0_0 - flow_18_11_0_0 = 1
 root_flow: flow_0_1_0_0 + flow_0_2_0_0 + flow_0_5_0_0 + flow_0_8_0_0
   + flow_0_9_0_0 + flow_0_11_0_0 + flow_0_13_0_0 + flow_0_14_0_0
   + flow_0_15_0_0 + flow_0_16_0_0 + flow_0_17_0_0 = 18
 inactive_no_flow_0_1_0_0: flow_0_1_0_0 - 1000 edge_0_1_0_0 <= 0
 inactive_no_flow_0_2_0_0: flow_0_2_0_0 - 1000 edge_0_2_0_0 <= 0
 inactive_no_flow_0_5_0_0: flow_0_5_0_0 - 1000 edge_0_5_0_0 <= 0
 inactive_no_flow_0_8_0_0: flow_0_8_0_0 - 1000 edge_0_8_0_0 <= 0
 inactive_no_flow_0_9_0_0: flow_0_9_0_0 - 1000 edge_0_9_0_0 <= 0
 inactive_no_flow_0_11_0_0: flow_0_11_0_0 - 1000 edge_0_11_0_0 <= 0
 inactive_no_flow_0_13_0_0: flow_0_13_0_0 - 1000 edge_0_13_0_0 <= 0
 inactive_no_flow_0_14_0_0: flow_0_14_0_0 - 1000 edge_0_14_0_0 <= 0
 inactive_no_flow_0_15_0_0: flow_0_15_0_0 - 1000 edge_0_15_0_0 <= 0
 inactive_no_flow_0_16_0_0: flow_0_16_0_0 - 1000 edge_0_16_0_0 <= 0
 inactive_no_flow_0_17_0_0: flow_0_17_0_0 - 1000 edge_0_17_0_0 <= 0
 inactive_no_flow_1_2_0_0: flow_1_2_0_0 - 1000 edge_1_2_0_0 <= 0
 inactive_no_flow_1_3_0_0: flow_1_3_0_0 - 1000 edge_1_3_0_0 <= 0
 inactive_no_flow_1_4_0_0: flow_1_4_0_0 - 1000 edge_1_4_0_0 <= 0
 inactive_no_flow_1_5_0_0: flow_1_5_0_0 - 1000 edge_1_5_0_0 <= 0
 inactive_no_flow_1_7_0_0: flow_1_7_0_0 - 1000 edge_1_7_0_0 <= 0
 inactive_no_flow_1_8_0_0: flow_1_8_0_0 - 1000 edge_1_8_0_0 <= 0
 inactive_no_flow_1_9_0_0: flow_1_9_0_0 - 1000 edge_1_9_0_0 <= 0
 inactive_no_flow_1_10_0_0: flow_1_10_0_0 - 1000 edge_1_10_0_0 <= 0
 inactive_no_flow_1_11_0_0: flow_1_11_0_0 - 1000 edge_1_11_0_0 <= 0
 inactive_no_flow_1_13_0_0: flow_1_13_0_0 - 1000 edge_1_13_0_0 <= 0
 inactive_no_flow_1_14_0_0: flow_1_14_0_0 - 1000 edge_1_14_0_0 <= 0
 inactive_no_flow_1_15_0_0: flow_1_15_0_0 - 1000 edge_1_15_0_0 <= 0
 inactive_no_flow_1_16_0_0: flow_1_16_0_0 - 1000 edge_1_16_0_0 <= 0
 inactive_no_flow_1_17_0_0: flow_1_17_0_0 - 1000 edge_1_17_0_0 <= 0
 inactive_no_flow_1_18_0_0: flow_1_18_0_0 - 1000 edge_1_18_0_0 <= 0
 inactive_no_flow_2_1_0_0: flow_2_1_0_0 - 1000 edge_2_1_0_0 <= 0
 inactive_no_flow_2_3_0_0: flow_2_3_0_0 - 1000 edge_2_3_0_0 <= 0
 inactive_no_flow_2_4_0_0: flow_2_4_0_0 - 1000 edge_2_4_0_0 <= 0
 inactive_no_flow_2_5_0_0: flow_2_5_0_0 - 1000 edge_2_5_0_0 <= 0
 inactive_no_flow_2_7_0_0: flow_2_7_0_0 - 1000 edge_2_7_0_0 <= 0
 inactive_no_flow_2_8_0_0: flow_2_8_0_0 - 1000 edge_2_8_0_0 <= 0
 inactive_no_flow_2_9_0_0: flow_2_9_0_0 - 1000 edge_2_9_0_0 <= 0
 inactive_no_flow_2_10_0_0: flow_2_10_0_0 - 1000 edge_2_10_0_0 <= 0
 inactive_no_flow_2_11_0_0: flow_2_11_0_0 - 1000 edge_2_11_0_0 <= 0
 inactive_no_flow_2_13_0_0: flow_2_13_0_0 - 1000 edge_2_13_0_0 <= 0
 inactive_no_flow_2_14_0_0: flow_2_14_0_0 - 1000 edge_2_14_0_0 <= 0
 inactive_no_flow_2_15_0_0: flow_2_15_0_0 - 1000 edge_2_15_0_0 <= 0
 inactive_no_flow_2_16_0_0: flow_2_16_0_0 - 1000 edge_2_16_0_0 <= 0
 inactive_no_flow_2_17_0_0: flow_2_17_0_0 - 1000 edge_2_17_0_0 <= 0
 inactive_no_flow_2_18_0_0: flow_2_18_0_0 - 1000 edge_2_18_0_0 <= 0
 inactive_no_flow_3_1_0_0: flow_3_1_0_0 - 1000 edge_3_1_0_0 <= 0
 inactive_no_flow_3_2_0_0: flow_3_2_0_0 - 1000 edge_3_2_0_0 <= 0
 inactive_no_flow_3_4_0_0: flow_3_4_0_0 - 1000 edge_3_4_0_0 <= 0
 inactive_no_flow_3_5_0_0: flow_3_5_0_0 - 1000 edge_3_5_0_0 <= 0
 inactive_no_flow_3_7_0_0: flow_3_7_0_0 - 1000 edge_3_7_0_0 <= 0
 inactive_no_flow_3_8_0_0: flow_3_8_0_0 - 1000 edge_3_8_0_0 <= 0
 inactive_no_flow_3_10_0_0: flow_3_10_0_0 - 1000 edge_3_10_0_0 <= 0
 inactive_no_flow_3_11_0_0: flow_3_11_0_0 - 1000 edge_3_11_0_0 <= 0
 inactive_no_flow_3_16_0_0: flow_3_16_0_0 - 1000 edge_3_16_0_0 <= 0
 inactive_no_flow_3_18_0_0: flow_3_18_0_0 - 1000 edge_3_18_0_0 <= 0
 inactive_no_flow_4_1_0_0: flow_4_1_0_0 - 1000 edge_4_1_0_0 <= 0
 inactive_no_flow_4_2_0_0: flow_4_2_0_0 - 1000 edge_4_2_0_0 <= 0
 inactive_no_flow_4_3_0_0: flow_4_3_0_0 - 1000 edge_4_3_0_0 <= 0
 inactive_no_flow_4_5_0_0: flow_4_5_0_0 - 1000 edge_4_5_0_0 <= 0
 inactive_no_flow_4_7_0_0: flow_4_7_0_0 - 1000 edge_4_7_0_0 <= 0
 inactive_no_flow_4_8_0_0: flow_4_8_0_0 - 1000 edge_4_8_0_0 <= 0
 inactive_no_flow_4_9_0_0: flow_4_9_0_0 - 1000 edge_4_9_0_0 <= 0
 inactive_no_flow_4_11_0_0: flow_4_11_0_0 - 1000 edge_4_11_0_0 <= 0
 inactive_no_flow_4_14_0_0: flow_4_14_0_0 - 1000 edge_4_14_0_0 <= 0
 inactive_no_flow_4_16_0_0: flow_4_16_0_0 - 1000 edge_4_16_0_0 <= 0
 inactive_no_flow_4_17_0_0: flow_4_17_0_0 - 1000 edge_4_17_0_0 <= 0
 inactive_no_flow_4_18_0_0: flow_4_18_0_0 - 1000 edge_4_18_0_0 <= 0
 inactive_no_flow_5_1_0_0: flow_5_1_0_0 - 1000 edge_5_1_0_0 <= 0
 inactive_no_flow_5_2_0_0: flow_5_2_0_0 - 1000 edge_5_2_0_0 <= 0
 inactive_no_flow_5_3_0_0: flow_5_3_0_0 - 1000 edge_5_3_0_0 <= 0
 inactive_no_flow_5_4_0_0: flow_5_4_0_0 - 1000 edge_5_4_0_0 <= 0
 inactive_no_flow_5_7_0_0: flow_5_7_0_0 - 1000 edge_5_7_0_0 <= 0
 inactive_no_flow_5_8_0_0: flow_5_8_0_0 - 1000 edge_5_8_0_0 <= 0
 inactive_no_flow_5_9_0_0: flow_5_9_0_0 - 1000 edge_5_9_0_0 <= 0
 inactive_no_flow_5_10_0_0: flow_5_10_0_0 - 1000 edge_5_10_0_0 <= 0
 inactive_no_flow_5_11_0_0: flow_5_11_0_0 - 1000 edge_5_11_0_0 <= 0
 inactive_no_flow_5_13_0_0: flow_5_13_0_0 - 1000 edge_5_13_0_0 <= 0
 inactive_no_flow_5_14_0_0: flow_5_14_0_0 - 1000 edge_5_14_0_0 <= 0
 inactive_no_flow_5_15_0_0: flow_5_15_0_0 - 1000 edge_5_15_0_0 <= 0
 inactive_no_flow_5_16_0_0: flow_5_16_0_0 - 1000 edge_5_16_0_0 <= 0
 inactive_no_flow_5_17_0_0: flow_5_17_0_0 - 1000 edge_5_17_0_0 <= 0
 inactive_no_flow_5_18_0_0: flow_5_18_0_0 - 1000 edge_5_18_0_0 <= 0
 inactive_no_flow_7_1_0_0: flow_7_1_0_0 - 1000 edge_7_1_0_0 <= 0
 inactive_no_flow_7_2_0_0: flow_7_2_0_0 - 1000 edge_7_2_0_0 <= 0
 inactive_no_flow_7_5_0_0: flow_7_5_0_0 - 1000 edge_7_5_0_0 <= 0
 inactive_no_flow_7_8_0_0: flow_7_8_0_0 - 1000 edge_7_8_0_0 <= 0
 inactive_no_flow_7_9_0_0: flow_7_9_0_0 - 1000 edge_7_9_0_0 <= 0
 inactive_no_flow_8_1_0_0: flow_8_1_0_0 - 1000 edge_8_1_0_0 <= 0
 inactive_no_flow_8_2_0_0: flow_8_2_0_0 - 1000 edge_8_2_0_0 <= 0
 inactive_no_flow_8_3_0_0: flow_8_3_0_0 - 1000 edge_8_3_0_0 <= 0
 inactive_no_flow_8_5_0_0: flow_8_5_0_0 - 1000 edge_8_5_0_0 <= 0
 inactive_no_flow_8_7_0_0: flow_8_7_0_0 - 1000 edge_8_7_0_0 <= 0
 inactive_no_flow_8_9_0_0: flow_8_9_0_0 - 1000 edge_8_9_0_0 <= 0
 inactive_no_flow_8_10_0_0: flow_8_10_0_0 - 1000 edge_8_10_0_0 <= 0
 inactive_no_flow_8_11_0_0: flow_8_11_0_0 - 1000 edge_8_11_0_0 <= 0
 inactive_no_flow_8_18_0_0: flow_8_18_0_0 - 1000 edge_8_18_0_0 <= 0
 inactive_no_flow_9_1_0_0: flow_9_1_0_0 - 1000 edge_9_1_0_0 <= 0
 inactive_no_flow_9_2_0_0: flow_9_2_0_0 - 1000 edge_9_2_0_0 <= 0
 inactive_no_flow_9_4_0_0: flow_9_4_0_0 - 1000 edge_9_4_0_0 <= 0
 inactive_no_flow_9_5_0_0: flow_9_5_0_0 - 1000 edge_9_5_0_0 <= 0
 inactive_no_flow_9_7_0_0: flow_9_7_0_0 - 1000 edge_9_7_0_0 <= 0
 inactive_no_flow_9_8_0_0: flow_9_8_0_0 - 1000 edge_9_8_0_0 <= 0
 inactive_no_flow_9_10_0_0: flow_9_10_0_0 - 1000 edge_9_10_0_0 <= 0
 inactive_no_flow_9_11_0_0: flow_9_11_0_0 - 1000 edge_9_11_0_0 <= 0
 inactive_no_flow_9_14_0_0: flow_9_14_0_0 - 1000 edge_9_14_0_0 <= 0
 inactive_no_flow_9_18_0_0: flow_9_18_0_0 - 1000 edge_9_18_0_0 <= 0
 inactive_no_flow_10_8_0_0: flow_10_8_0_0 - 1000 edge_10_8_0_0 <= 0
 inactive_no_flow_10_9_0_0: flow_10_9_0_0 - 1000 edge_10_9_0_0 <= 0
 inactive_no_flow_10_18_0_0: flow_10_18_0_0 - 1000 edge_10_18_0_0 <= 0
 inactive_no_flow_11_1_0_0: flow_11_1_0_0 - 1000 edge_11_1_0_0 <= 0
 inactive_no_flow_11_2_0_0: flow_11_2_0_0 - 1000 edge_11_2_0_0 <= 0
 inactive_no_flow_11_3_0_0: flow_11_3_0_0 - 1000 edge_11_3_0_0 <= 0
 inactive_no_flow_11_4_0_0: flow_11_4_0_0 - 1000 edge_11_4_0_0 <= 0
 inactive_no_flow_11_5_0_0: flow_11_5_0_0 - 1000 edge_11_5_0_0 <= 0
 inactive_no_flow_11_7_0_0: flow_11_7_0_0 - 1000 edge_11_7_0_0 <= 0
 inactive_no_flow_11_8_0_0: flow_11_8_0_0 - 1000 edge_11_8_0_0 <= 0
 inactive_no_flow_11_9_0_0: flow_11_9_0_0 - 1000 edge_11_9_0_0 <= 0
 inactive_no_flow_11_10_0_0: flow_11_10_0_0 - 1000 edge_11_10_0_0 <= 0
 inactive_no_flow_11_13_0_0: flow_11_13_0_0 - 1000 edge_11_13_0_0 <= 0
 inactive_no_flow_11_14_0_0: flow_11_14_0_0 - 1000 edge_11_14_0_0 <= 0
 inactive_no_flow_11_15_0_0: flow_11_15_0_0 - 1000 edge_11_15_0_0 <= 0
 inactive_no_flow_11_16_0_0: flow_11_16_0_0 - 1000 edge_11_16_0_0 <= 0
 inactive_no_flow_11_17_0_0: flow_11_17_0_0 - 1000 edge_11_17_0_0 <= 0
 inactive_no_flow_11_18_0_0: flow_11_18_0_0 - 1000 edge_11_18_0_0 <= 0
 inactive_no_flow_13_1_0_0: flow_13_1_0_0 - 1000 edge_13_1_0_0 <= 0
 inactive_no_flow_13_15_0_0: flow_13_15_0_0 - 1000 edge_13_15_0_0 <= 0
 inactive_no_flow_13_16_0_0: flow_13_16_0_0 - 1000 edge_13_16_0_0 <= 0
 inactive_no_flow_13_17_0_0: flow_13_17_0_0 - 1000 edge_13_17_0_0 <= 0
 inactive_no_flow_14_1_0_0: flow_14_1_0_0 - 1000 edge_14_1_0_0 <= 0
 inactive_no_flow_14_2_0_0: flow_14_2_0_0 - 1000 edge_14_2_0_0 <= 0
 inactive_no_flow_14_3_0_0: flow_14_3_0_0 - 1000 edge_14_3_0_0 <= 0
 inactive_no_flow_14_4_0_0: flow_14_4_0_0 - 1000 edge_14_4_0_0 <= 0
 inactive_no_flow_14_5_0_0: flow_14_5_0_0 - 1000 edge_14_5_0_0 <= 0
 inactive_no_flow_14_7_0_0: flow_14_7_0_0 - 1000 edge_14_7_0_0 <= 0
 inactive_no_flow_14_8_0_0: flow_14_8_0_0 - 1000 edge_14_8_0_0 <= 0
 inactive_no_flow_14_9_0_0: flow_14_9_0_0 - 1000 edge_14_9_0_0 <= 0
 inactive_no_flow_14_10_0_0: flow_14_10_0_0 - 1000 edge_14_10_0_0 <= 0
 inactive_no_flow_14_11_0_0: flow_14_11_0_0 - 1000 edge_14_11_0_0 <= 0
 inactive_no_flow_14_16_0_0: flow_14_16_0_0 - 1000 edge_14_16_0_0 <= 0
 inactive_no_flow_14_17_0_0: flow_14_17_0_0 - 1000 edge_14_17_0_0 <= 0
 inactive_no_flow_14_18_0_0: flow_14_18_0_0 - 1000 edge_14_18_0_0 <= 0
 inactive_no_flow_15_1_0_0: flow_15_1_0_0 - 1000 edge_15_1_0_0 <= 0
 inactive_no_flow_15_2_0_0: flow_15_2_0_0 - 1000 edge_15_2_0_0 <= 0
 inactive_no_flow_15_5_0_0: flow_15_5_0_0 - 1000 edge_15_5_0_0 <= 0
 inactive_no_flow_15_7_0_0: flow_15_7_0_0 - 1000 edge_15_7_0_0 <= 0
 inactive_no_flow_15_11_0_0: flow_15_11_0_0 - 1000 edge_15_11_0_0 <= 0
 inactive_no_flow_15_13_0_0: flow_15_13_0_0 - 1000 edge_15_13_0_0 <= 0
 inactive_no_flow_15_16_0_0: flow_15_16_0_0 - 1000 edge_15_16_0_0 <= 0
 inactive_no_flow_15_17_0_0: flow_15_17_0_0 - 1000 edge_15_17_0_0 <= 0
 inactive_no_flow_15_18_0_0: flow_15_18_0_0 - 1000 edge_15_18_0_0 <= 0
 inactive_no_flow_16_1_0_0: flow_16_1_0_0 - 1000 edge_16_1_0_0 <= 0
 inactive_no_flow_16_2_0_0: flow_16_2_0_0 - 1000 edge_16_2_0_0 <= 0
 inactive_no_flow_16_4_0_0: flow_16_4_0_0 - 1000 edge_16_4_0_0 <= 0
 inactive_no_flow_16_5_0_0: flow_16_5_0_0 - 1000 edge_16_5_0_0 <= 0
 inactive_no_flow_16_7_0_0: flow_16_7_0_0 - 1000 edge_16_7_0_0 <= 0
 inactive_no_flow_16_11_0_0: flow_16_11_0_0 - 1000 edge_16_11_0_0 <= 0
 inactive_no_flow_16_13_0_0: flow_16_13_0_0 - 1000 edge_16_13_0_0 <= 0
 inactive_no_flow_16_14_0_0: flow_16_14_0_0 - 1000 edge_16_14_0_0 <= 0
 inactive_no_flow_16_15_0_0: flow_16_15_0_0 - 1000 edge_16_15_0_0 <= 0
 inactive_no_flow_16_17_0_0: flow_16_17_0_0 - 1000 edge_16_17_0_0 <= 0
 inactive_no_flow_16_18_0_0: flow_16_18_0_0 - 1000 edge_16_18_0_0 <= 0
 inactive_no_flow_17_1_0_0: flow_17_1_0_0 - 1000 edge_17_1_0_0 <= 0
 inactive_no_flow_17_2_0_0: flow_17_2_0_0 - 1000 edge_17_2_0_0 <= 0
 inactive_no_flow_17_3_0_0: flow_17_3_0_0 - 1000 edge_17_3_0_0 <= 0
 inactive_no_flow_17_4_0_0: flow_17_4_0_0 - 1000 edge_17_4_0_0 <= 0
 inactive_no_flow_17_5_0_0: flow_17_5_0_0 - 1000 edge_17_5_0_0 <= 0
 inactive_no_flow_17_7_0_0: flow_17_7_0_0 - 1000 edge_17_7_0_0 <= 0
 inactive_no_flow_17_8_0_0: flow_17_8_0_0 - 1000 edge_17_8_0_0 <= 0
 inactive_no_flow_17_9_0_0: flow_17_9_0_0 - 1000 edge_17_9_0_0 <= 0
 inactive_no_flow_17_10_0_0: flow_17_10_0_0 - 1000 edge_17_10_0_0 <= 0
 inactive_no_flow_17_11_0_0: flow_17_11_0_0 - 1000 edge_17_11_0_0 <= 0
 inactive_no_flow_17_13_0_0: flow_17_13_0_0 - 1000 edge_17_13_0_0 <= 0
 inactive_no_flow_17_14_0_0: flow_17_14_0_0 - 1000 edge_17_14_0_0 <= 0
 inactive_no_flow_17_15_0_0: flow_17_15_0_0 - 1000 edge_17_15_0_0 <= 0
 inactive_no_flow_17_16_0_0: flow_17_16_0_0 - 1000 edge_17_16_0_0 <= 0
 inactive_no_flow_17_18_0_0: flow_17_18_0_0 - 1000 edge_17_18_0_0 <= 0
 inactive_no_flow_18_11_0_0: flow_18_11_0_0 - 1000 edge_18_11_0_0 <= 0
Bounds
Binaries
 edge_0_1_0_0 edge_0_2_0_0 edge_0_5_0_0 edge_0_8_0_0 edge_0_9_0_0
 edge_0_11_0_0 edge_0_13_0_0 edge_0_14_0_0 edge_0_15_0_0 edge_0_16_0_0
 edge_0_17_0_0 edge_1_2_0_0 edge_1_3_0_0 edge_1_4_0_0 edge_1_5_0_0
 edge_1_7_0_0 edge_1_8_0_0 edge_1_9_0_0 edge_1_10_0_0 edge_1_11_0_0
 edge_1_13_0_0 edge_1_14_0_0 edge_1_15_0_0 edge_1_16_0_0 edge_1_17_0_0
 edge_1_18_0_0 edge_2_1_0_0 edge_2_3_0_0 edge_2_4_0_0 edge_2_5_0_0
 edge_2_7_0_0 edge_2_8_0_0 edge_2_9_0_0 edge_2_10_0_0 edge_2_11_0_0
 edge_2_13_0_0 edge_2_14_0_0 edge_2_15_0_0 edge_2_16_0_0 edge_2_17_0_0
 edge_2_18_0_0 edge_3_1_0_0 edge_3_2_0_0 edge_3_4_0_0 edge_3_5_0_0
 edge_3_7_0_0 edge_3_8_0_0 edge_3_10_0_0 edge_3_11_0_0 edge_3_16_0_0
 edge_3_18_0_0 edge_4_1_0_0 edge_4_2_0_0 edge_4_3_0_0 edge_4_5_0_0
 edge_4_7_0_0 edge_4_8_0_0 edge_4_9_0_0 edge_4_11_0_0 edge_4_14_0_0
 edge_4_16_0_0 edge_4_17_0_0 edge_4_18_0_0 edge_5_1_0_0 edge_5_2_0_0
 edge_5_3_0_0 edge_5_4_0_0 edge_5_7_0_0 edge_5_8_0_0 edge_5_9_0_0
 edge_5_10_0_0 edge_5_11_0_0 edge_5_13_0_0 edge_5_14_0_0 edge_5_15_0_0
 edge_5_16_0_0 edge_5_17_0_0 edge_5_18_0_0 edge_7_1_0_0 edge_7_2_0_0
 edge_7_5_0_0 edge_7_8_0_0 edge_7_9_0_0 edge_8_1_0_0 edge_8_2_0_0
 edge_8_3_0_0 edge_8_5_0_0 edge_8_7_0_0 edge_8_9_0_0 edge_8_10_0_0
 edge_8_11_0_0 edge_8_18_0_0 edge_9_1_0_0 edge_9_2_0_0 edge_9_4_0_0
 edge_9_5_0_0 edge_9_7_0_0 edge_9_8_0_0 edge_9_10_0_0 edge_9_11_0_0
 edge_9_14_0_0 edge_9_18_0_0 edge_10_8_0_0 edge_10_9_0_0 edge_10_18_0_0
 edge_11_1_0_0 edge_11_2_0_0 edge_11_3_0_0 edge_11_4_0_0 edge_11_5_0_0
 edge_11_7_0_0 edge_11_8_0_0 edge_11_9_0_0 edge_11_10_0_0 edge_11_13_0_0
 edge_11_14_0_0 edge_11_15_0_0 edge_11_16_0_0 edge_11_17_0_0 edge_11_18_0_0
 edge_13_1_0_0 edge_13_15_0_0 edge_13_16_0_0 edge_13_17_0_0 edge_14_1_0_0
 edge_14_2_0_0 edge_14_3_0_0 edge_14_4_0_0 edge_14_5_0_0 edge_14_7_0_0
 edge_14_8_0_0 edge_14_9_0_0 edge_14_10_0_0 edge_14_11_0_0 edge_14_16_0_0
 edge_14_17_0_0 edge_14_18_0_0 edge_15_1_0_0 edge_15_2_0_0 edge_15_5_0_0
 edge_15_7_0_0 edge_15_11_0_0 edge_15_13_0_0 edge_15_16_0_0 edge_15_17_0_0
 edge_15_18_0_0 edge_16_1_0_0 edge_16_2_0_0 edge_16_4_0_0 edge_16_5_0_0
 edge_16_7_0_0 edge_16_11_0_0 edge_16_13_0_0 edge_16_14_0_0 edge_16_15_0_0
 edge_16_17_0_0 edge_16_18_0_0 edge_17_1_0_0 edge_17_2_0_0 edge_17_3_0_0
 edge_17_4_0_0 edge_17_5_0_0 edge_17_7_0_0 edge_17_8_0_0 edge_17_9_0_0
 edge_17_10_0_0 edge_17_11_0_0 edge_17_13_0_0 edge_17_14_0_0 edge_17_15_0_0
 edge_17_16_0_0 edge_17_18_0_0 edge_18_11_0_0
End
